Maximize
  obj: -0 x0 +0 x1 +0 x2 +0 x3 +0 x4 -0 x5 +0 x6 -0 x7 +0 x8 +0 x9 -174 x10 -163 x11 +195 x12 +49 x13 +178 x14 -160 x15 -153 x16 -76 x17 +114 x18 -163 x19 
Subject to
  c1: +0 x0 +0 x1 +0 x2 +0 x3 +0 x4 +1 x5 +16 x6 +0 x7 +17 x8 +0 x9 +11 x10 <= 52
  c2: +0 x0 +0 x1 +0 x2 +0 x3 +3 x4 +14 x5 +0 x6 +0 x7 +0 x8 +0 x9 +5 x11 <= 85
  c3: +0 x0 +0 x1 +18 x2 +0 x3 +16 x4 +0 x5 +15 x6 +0 x7 +0 x8 +0 x9 +5 x12 <= 78
  c4: +6 x0 +9 x1 +0 x2 +0 x3 +0 x4 +0 x5 +0 x6 +0 x7 +20 x8 +0 x9 +8 x13 <= 70
  c5: +0 x0 +0 x1 +0 x2 +0 x3 +17 x4 +0 x5 +0 x6 +0 x7 +19 x8 +0 x9 +19 x14 <= 68
  c6: +0 x0 +17 x1 +0 x2 +0 x3 +6 x4 +8 x5 +0 x6 +7 x7 +5 x8 +0 x9 +9 x15 <= 77
  c7: +0 x0 -1 x1 -1 x2 +0 x3 +0 x4 +14 x5 +0 x6 +16 x7 +0 x8 +16 x9 +12 x16 <= 52
  c8: +16 x0 +0 x1 +0 x2 +0 x3 +15 x4 +0 x5 +20 x6 +0 x7 +0 x8 +16 x9 +6 x17 <= 74
  c9: +16 x0 +16 x1 +0 x2 +0 x3 +0 x4 +4 x5 +16 x6 +0 x7 +0 x8 +0 x9 +3 x18 <= 75
  c10: +0 x0 +0 x1 +0 x2 +0 x3 +6 x4 +13 x5 +0 x6 +0 x7 +0 x8 +12 x9 +2 x19 <= 75
  c11: +0 x0 +0 x1 +0 x2 +11 x3 +0 x4 +9 x5 +0 x6 +8 x7 +0 x8 +9 x9 <= 66
  c12: +0 x0 +0 x1 +1 x2 +0 x3 +6 x4 +0 x5 +0 x6 +1 x7 +0 x8 +13 x9 <= 98
  c13: +10 x0 +0 x1 +6 x2 +0 x3 +14 x4 +0 x5 +18 x6 +0 x7 +13 x8 +0 x9 <= 69
  c14: +4 x0 +0 x1 +3 x2 +0 x3 +11 x4 +4 x5 +0 x6 +0 x7 +11 x8 +0 x9 <= 71
  c15: +0 x0 +0 x1 +0 x2 +5 x3 +0 x4 +12 x5 +15 x6 +0 x7 -1 x8 +0 x9 <= 77
  c16: +0 x0 +0 x1 +0 x2 +0 x3 +9 x4 +8 x5 +14 x6 +0 x7 +9 x8 +0 x9 <= 98
  c17: +0 x0 +20 x1 +5 x2 +0 x3 +0 x4 +0 x5 +0 x6 +19 x7 +9 x8 +15 x9 <= 81
  c18: +10 x0 +0 x1 +0 x2 +17 x3 +0 x4 +15 x5 +0 x6 +0 x7 +16 x8 +18 x9 <= 78
  c19: +15 x0 +0 x1 +3 x2 +11 x3 +0 x4 +0 x5 +13 x6 +13 x7 +0 x8 +0 x9 <= 100
  c20: + x10 + x11 + x12 + x13 + x14 + x15 + x16 + x17 + x18 + x19 <= 3.333333
Binary
 x10
 x11
 x12
 x13
 x14
 x15
 x16
 x17
 x18
 x19
End
